NAME: cuum550.tsp
TYPE: TSP
COMMENT: User-generated TSP file
DIMENSION: 550
EDGE_WEIGHT_TYPE: EUC_2D
NODE_COORD_SECTION
1 139.0 43.0
2 457.0 161.0
3 317.0 210.0
4 400.0 306.0
5 505.0 85.0
6 459.0 542.0
7 441.0 162.0
8 355.0 250.0
9 96.0 491.0
10 259.0 11.0
11 230.0 423.0
12 518.0 313.0
13 335.0 49.0
14 259.0 217.0
15 103.0 298.0
16 152.0 423.0
17 163.0 241.0
18 15.0 43.0
19 151.0 271.0
20 243.0 25.0
21 28.0 371.0
22 360.0 145.0
23 434.0 29.0
24 140.0 432.0
25 219.0 104.0
26 484.0 11.0
27 189.0 81.0
28 319.0 462.0
29 349.0 242.0
30 226.0 501.0
31 452.0 130.0
32 30.0 187.0
33 246.0 29.0
34 175.0 327.0
35 335.0 357.0
36 375.0 22.0
37 98.0 144.0
38 253.0 112.0
39 66.0 365.0
40 89.0 117.0
41 526.0 91.0
42 456.0 136.0
43 463.0 22.0
44 93.0 46.0
45 474.0 508.0
46 316.0 38.0
47 289.0 483.0
48 37.0 472.0
49 133.0 12.0
50 45.0 8.0
51 437.0 544.0
52 319.0 365.0
53 258.0 79.0
54 134.0 448.0
55 422.0 540.0
56 217.0 384.0
57 122.0 179.0
58 354.0 205.0
59 15.0 378.0
60 134.0 95.0
61 459.0 183.0
62 15.0 95.0
63 168.0 359.0
64 450.0 403.0
65 44.0 101.0
66 127.0 306.0
67 187.0 540.0
68 103.0 260.0
69 8.0 449.0
70 308.0 226.0
71 186.0 161.0
72 177.0 293.0
73 17.0 177.0
74 457.0 190.0
75 488.0 224.0
76 267.0 68.0
77 516.0 409.0
78 64.0 205.0
79 282.0 79.0
80 214.0 490.0
81 122.0 420.0
82 545.0 11.0
83 383.0 116.0
84 164.0 57.0
85 204.0 405.0
86 38.0 193.0
87 99.0 102.0
88 523.0 1.0
89 150.0 310.0
90 254.0 254.0
91 217.0 385.0
92 26.0 322.0
93 435.0 280.0
94 401.0 183.0
95 346.0 82.0
96 166.0 537.0
97 456.0 114.0
98 261.0 214.0
99 506.0 196.0
100 268.0 338.0
101 67.0 241.0
102 215.0 458.0
103 500.0 295.0
104 218.0 333.0
105 149.0 363.0
106 47.0 532.0
107 277.0 427.0
108 348.0 364.0
109 97.0 160.0
110 128.0 252.0
111 127.0 5.0
112 95.0 461.0
113 346.0 423.0
114 470.0 10.0
115 311.0 136.0
116 282.0 110.0
117 449.0 524.0
118 500.0 539.0
119 175.0 83.0
120 451.0 103.0
121 407.0 403.0
122 266.0 61.0
123 195.0 258.0
124 520.0 288.0
125 6.0 324.0
126 124.0 390.0
127 28.0 481.0
128 542.0 292.0
129 259.0 23.0
130 318.0 192.0
131 162.0 64.0
132 293.0 171.0
133 482.0 473.0
134 237.0 52.0
135 8.0 491.0
136 196.0 359.0
137 482.0 210.0
138 176.0 225.0
139 272.0 237.0
140 488.0 536.0
141 442.0 445.0
142 101.0 82.0
143 177.0 109.0
144 502.0 28.0
145 374.0 190.0
146 304.0 240.0
147 228.0 131.0
148 47.0 383.0
149 309.0 5.0
150 350.0 441.0
151 393.0 421.0
152 264.0 469.0
153 146.0 47.0
154 259.0 162.0
155 271.0 209.0
156 154.0 357.0
157 254.0 522.0
158 495.0 66.0
159 89.0 319.0
160 202.0 550.0
161 248.0 234.0
162 38.0 244.0
163 113.0 389.0
164 220.0 170.0
165 444.0 295.0
166 113.0 66.0
167 372.0 1.0
168 40.0 528.0
169 275.0 402.0
170 465.0 327.0
171 485.0 227.0
172 405.0 383.0
173 447.0 14.0
174 429.0 25.0
175 382.0 216.0
176 495.0 84.0
177 194.0 506.0
178 287.0 210.0
179 23.0 222.0
180 476.0 517.0
181 183.0 236.0
182 395.0 229.0
183 547.0 225.0
184 224.0 237.0
185 301.0 351.0
186 455.0 309.0
187 339.0 279.0
188 13.0 463.0
189 128.0 46.0
190 405.0 273.0
191 485.0 547.0
192 46.0 329.0
193 338.0 428.0
194 163.0 431.0
195 312.0 395.0
196 519.0 262.0
197 169.0 48.0
198 303.0 379.0
199 345.0 145.0
200 368.0 385.0
201 63.0 178.0
202 109.0 151.0
203 11.0 459.0
204 86.0 416.0
205 151.0 204.0
206 197.0 370.0
207 163.0 263.0
208 475.0 39.0
209 111.0 367.0
210 160.0 238.0
211 271.0 344.0
212 66.0 51.0
213 362.0 83.0
214 67.0 125.0
215 315.0 506.0
216 210.0 54.0
217 300.0 301.0
218 228.0 31.0
219 307.0 184.0
220 212.0 242.0
221 448.0 355.0
222 332.0 507.0
223 541.0 138.0
224 545.0 257.0
225 227.0 44.0
226 125.0 285.0
227 253.0 310.0
228 278.0 465.0
229 550.0 151.0
230 123.0 430.0
231 7.0 215.0
232 164.0 51.0
233 334.0 395.0
234 243.0 67.0
235 85.0 398.0
236 138.0 78.0
237 68.0 228.0
238 305.0 486.0
239 501.0 132.0
240 80.0 308.0
241 92.0 84.0
242 261.0 183.0
243 277.0 447.0
244 398.0 197.0
245 508.0 525.0
246 60.0 316.0
247 59.0 190.0
248 459.0 239.0
249 463.0 232.0
250 363.0 114.0
251 290.0 366.0
252 112.0 152.0
253 91.0 177.0
254 448.0 397.0
255 445.0 17.0
256 114.0 169.0
257 449.0 12.0
258 492.0 127.0
259 431.0 435.0
260 372.0 17.0
261 169.0 130.0
262 192.0 254.0
263 152.0 97.0
264 249.0 477.0
265 161.0 202.0
266 290.0 519.0
267 382.0 149.0
268 300.0 82.0
269 52.0 487.0
270 313.0 73.0
271 479.0 55.0
272 81.0 324.0
273 449.0 170.0
274 66.0 142.0
275 419.0 5.0
276 454.0 144.0
277 404.0 159.0
278 122.0 398.0
279 469.0 89.0
280 4.0 487.0
281 450.0 53.0
282 17.0 210.0
283 306.0 227.0
284 355.0 148.0
285 274.0 472.0
286 250.0 125.0
287 250.0 281.0
288 188.0 82.0
289 198.0 227.0
290 226.0 549.0
291 162.0 413.0
292 448.0 37.0
293 486.0 144.0
294 267.0 535.0
295 128.0 348.0
296 73.0 200.0
297 34.0 46.0
298 96.0 495.0
299 108.0 158.0
300 4.0 441.0
301 421.0 160.0
302 176.0 363.0
303 85.0 495.0
304 100.0 499.0
305 100.0 443.0
306 125.0 338.0
307 187.0 111.0
308 383.0 72.0
309 538.0 158.0
310 191.0 221.0
311 199.0 77.0
312 57.0 439.0
313 487.0 485.0
314 361.0 221.0
315 522.0 79.0
316 166.0 206.0
317 487.0 364.0
318 204.0 498.0
319 266.0 369.0
320 130.0 63.0
321 43.0 319.0
322 31.0 332.0
323 367.0 206.0
324 205.0 520.0
325 473.0 35.0
326 452.0 524.0
327 117.0 303.0
328 170.0 101.0
329 144.0 26.0
330 255.0 450.0
331 549.0 343.0
332 179.0 348.0
333 285.0 418.0
334 518.0 527.0
335 546.0 98.0
336 416.0 468.0
337 494.0 28.0
338 153.0 408.0
339 122.0 362.0
340 118.0 36.0
341 186.0 188.0
342 517.0 498.0
343 345.0 465.0
344 241.0 441.0
345 498.0 65.0
346 172.0 169.0
347 396.0 309.0
348 253.0 125.0
349 19.0 200.0
350 520.0 406.0
351 140.0 366.0
352 193.0 29.0
353 249.0 467.0
354 338.0 281.0
355 10.0 222.0
356 512.0 310.0
357 383.0 485.0
358 18.0 394.0
359 456.0 280.0
360 320.0 286.0
361 520.0 149.0
362 422.0 9.0
363 85.0 147.0
364 292.0 2.0
365 436.0 357.0
366 473.0 402.0
367 190.0 210.0
368 404.0 26.0
369 106.0 341.0
370 227.0 444.0
371 171.0 296.0
372 382.0 306.0
373 303.0 232.0
374 34.0 504.0
375 533.0 479.0
376 228.0 480.0
377 516.0 249.0
378 258.0 36.0
379 355.0 197.0
380 515.0 71.0
381 325.0 406.0
382 122.0 334.0
383 497.0 430.0
384 197.0 191.0
385 518.0 290.0
386 463.0 493.0
387 150.0 400.0
388 227.0 58.0
389 341.0 445.0
390 402.0 169.0
391 14.0 297.0
392 178.0 414.0
393 203.0 262.0
394 410.0 149.0
395 173.0 452.0
396 298.0 371.0
397 10.0 449.0
398 521.0 75.0
399 284.0 278.0
400 476.0 359.0
401 352.0 538.0
402 400.0 310.0
403 363.0 458.0
404 241.0 511.0
405 102.0 229.0
406 146.0 270.0
407 423.0 232.0
408 82.0 278.0
409 225.0 348.0
410 93.0 431.0
411 469.0 226.0
412 81.0 489.0
413 479.0 30.0
414 123.0 539.0
415 274.0 199.0
416 206.0 283.0
417 175.0 404.0
418 416.0 80.0
419 199.0 193.0
420 308.0 327.0
421 342.0 35.0
422 244.0 445.0
423 22.0 499.0
424 340.0 374.0
425 120.0 85.0
426 78.0 404.0
427 479.0 550.0
428 167.0 175.0
429 55.0 489.0
430 274.0 289.0
431 70.0 463.0
432 153.0 198.0
433 227.0 378.0
434 473.0 415.0
435 65.0 350.0
436 450.0 462.0
437 533.0 517.0
438 264.0 207.0
439 439.0 410.0
440 214.0 69.0
441 497.0 151.0
442 104.0 241.0
443 336.0 64.0
444 480.0 349.0
445 56.0 400.0
446 515.0 473.0
447 157.0 503.0
448 533.0 285.0
449 132.0 427.0
450 31.0 162.0
451 120.0 197.0
452 429.0 111.0
453 322.0 511.0
454 439.0 303.0
455 459.0 461.0
456 257.0 329.0
457 432.0 176.0
458 369.0 417.0
459 388.0 259.0
460 356.0 488.0
461 348.0 24.0
462 146.0 287.0
463 12.0 404.0
464 217.0 98.0
465 492.0 266.0
466 73.0 431.0
467 334.0 114.0
468 460.0 382.0
469 227.0 3.0
470 333.0 221.0
471 203.0 332.0
472 173.0 60.0
473 446.0 145.0
474 137.0 345.0
475 141.0 413.0
476 437.0 465.0
477 408.0 491.0
478 173.0 427.0
479 136.0 105.0
480 137.0 340.0
481 99.0 196.0
482 496.0 285.0
483 296.0 534.0
484 285.0 220.0
485 417.0 474.0
486 269.0 482.0
487 450.0 452.0
488 365.0 522.0
489 215.0 338.0
490 385.0 439.0
491 492.0 146.0
492 485.0 229.0
493 91.0 373.0
494 382.0 186.0
495 224.0 69.0
496 465.0 165.0
497 283.0 434.0
498 360.0 215.0
499 287.0 533.0
500 187.0 452.0
501 90.0 86.0
502 443.0 465.0
503 168.0 135.0
504 496.0 300.0
505 411.0 20.0
506 280.0 286.0
507 543.0 116.0
508 79.0 153.0
509 514.0 445.0
510 338.0 354.0
511 446.0 432.0
512 319.0 531.0
513 244.0 188.0
514 536.0 352.0
515 516.0 179.0
516 404.0 163.0
517 123.0 240.0
518 358.0 33.0
519 38.0 55.0
520 74.0 455.0
521 466.0 164.0
522 222.0 295.0
523 462.0 371.0
524 447.0 23.0
525 414.0 401.0
526 409.0 399.0
527 114.0 248.0
528 514.0 133.0
529 363.0 357.0
530 61.0 327.0
531 76.0 474.0
532 128.0 177.0
533 135.0 360.0
534 90.0 235.0
535 383.0 390.0
536 492.0 124.0
537 101.0 105.0
538 152.0 513.0
539 52.0 489.0
540 300.0 177.0
541 469.0 281.0
542 231.0 29.0
543 166.0 264.0
544 176.0 20.0
545 486.0 463.0
546 347.0 160.0
547 180.0 120.0
548 59.0 160.0
549 260.0 19.0
550 183.0 170.0
EOF





